
Log for 'CG.mps' Clone_1 (V12.6.0.0) Mon Jan 07 19:13:22 2019

Tried aggregator 0 times.
No LP presolve or aggregator reductions.
Presolve time = 0.01 sec. (3.68 ticks)
Parallel mode: none, using 1 thread for barrier
Number of nonzeros in lower triangle of A*A' = 2849
Using Approximate Minimum Degree ordering
Total time for automatic ordering = -0.00 sec. (1.04 ticks)
Summary statistics for Cholesky factor:
  Rows in Factor            = 154
  Integer space required    = 714
  Total non-zeros in factor = 5449
  Total FP ops to factor    = 248067
Barrier time = 0.02 sec. (6.72 ticks)

Dual simplex solved model.


Log for 'CG.mps' Clone_1 (V12.6.0.0) Mon Jan 07 19:24:30 2019

Tried aggregator 0 times.
No LP presolve or aggregator reductions.
Presolve time = 0.02 sec. (3.68 ticks)
Parallel mode: none, using 1 thread for barrier
Number of nonzeros in lower triangle of A*A' = 2849
Total time for automatic ordering = 0.00 sec. (0.95 ticks)
Barrier time = 0.00 sec. (3.31 ticks)

Dual simplex solved model.


Log for 'CG.mps' Clone_1 (V12.6.0.0) Mon Jan 07 19:41:24 2019

Presolve time = 0.03 sec. (3.39 ticks)

Dual simplex solved model.

